NAME : pr1002Preorder.54565.tour
COMMENT : Length = 54565
COMMENT : Found by LKH [Keld Helsgaun] Thu Apr 23 18:14:20 2020
TYPE : TOUR
DIMENSION : 1002
TOUR_SECTION
1
2
5
3
4
6
7
8
9
10
11
12
63
64
62
61
60
58
59
65
66
67
68
69
70
71
73
72
56
55
57
54
52
53
51
50
40
39
38
37
36
35
34
33
32
24
25
23
22
17
16
13
14
15
18
21
19
20
26
31
30
29
27
28
332
333
334
328
327
329
330
331
314
315
326
324
325
316
313
312
45
44
43
42
41
49
48
47
46
307
308
309
310
311
317
318
319
320
323
322
321
294
293
295
296
289
290
291
292
399
401
400
397
398
396
395
394
393
389
388
387
386
385
384
383
382
380
381
379
378
368
367
366
365
364
363
362
361
390
392
391
340
339
338
337
335
336
342
341
343
344
345
350
349
346
347
348
354
353
351
352
360
359
358
357
355
356
660
661
662
656
655
657
658
659
642
643
644
653
654
652
651
650
649
648
647
646
645
639
640
641
373
372
371
370
369
377
376
375
374
638
637
636
635
634
633
992
625
626
628
627
611
610
608
607
606
605
609
612
613
614
615
616
624
623
622
621
620
619
618
617
730
731
732
733
749
750
751
752
753
754
755
747
748
746
745
744
742
743
741
740
739
738
734
735
736
737
708
710
711
712
728
729
727
726
725
724
723
722
721
717
716
715
714
713
709
707
706
696
695
694
693
692
691
690
689
718
720
719
668
667
666
665
663
664
670
669
671
672
673
678
677
674
675
676
682
681
679
680
688
687
686
685
683
684
988
989
990
984
983
985
986
987
970
971
982
980
981
972
969
968
701
700
699
698
697
705
704
703
702
963
964
965
966
967
973
974
975
976
979
978
977
950
951
952
949
948
947
946
945
944
943
942
941
940
955
956
954
953
993
961
962
767
766
765
764
763
1000
759
760
761
762
774
775
773
772
771
770
768
769
960
959
958
957
939
938
937
936
935
934
933
932
931
930
929
928
926
927
925
924
923
922
921
919
920
887
888
886
885
884
883
882
881
880
879
878
876
870
871
872
869
868
867
873
874
875
877
890
889
891
892
893
847
846
848
849
845
844
895
894
896
898
897
842
843
851
850
853
852
858
857
854
855
856
864
865
866
863
861
862
860
859
1002
838
839
840
837
836
835
834
833
832
831
830
829
826
827
828
817
816
815
841
814
813
818
819
823
824
825
822
821
820
812
811
810
809
1001
908
907
899
900
901
902
918
917
916
904
903
906
905
909
910
911
912
915
914
913
777
776
778
779
780
781
782
783
784
785
758
757
756
789
790
791
792
794
793
788
786
787
801
802
803
804
800
805
806
807
808
799
798
797
796
795
604
603
602
601
600
598
599
597
596
595
593
594
590
589
588
576
575
577
578
580
579
571
572
573
574
591
592
559
560
558
557
556
555
554
553
552
551
550
548
542
543
544
541
540
539
545
546
547
549
562
561
563
564
565
519
518
520
521
517
516
567
566
568
570
569
514
515
523
522
525
524
530
529
526
527
528
536
537
538
535
533
534
532
531
999
510
511
512
509
508
507
506
505
504
503
502
501
498
499
500
489
488
487
513
486
485
490
491
495
496
497
494
493
492
484
483
482
481
998
478
479
480
477
476
475
474
473
472
471
470
469
468
467
466
465
460
459
458
457
456
455
453
454
584
583
582
581
587
586
585
449
448
450
451
452
432
433
434
446
447
445
444
443
442
631
630
629
632
441
439
440
438
437
436
435
997
431
430
429
428
461
462
463
464
423
424
425
426
427
419
418
420
422
421
405
406
407
410
416
417
415
414
413
412
411
409
408
402
403
404
288
287
286
285
284
299
300
298
297
991
305
306
111
113
304
303
302
301
283
282
281
280
279
278
277
276
275
274
273
272
270
271
269
268
267
265
266
262
261
260
248
247
249
250
252
251
243
244
245
246
263
264
231
232
230
229
228
227
226
225
224
223
222
220
214
215
216
213
212
211
217
218
219
221
234
233
235
236
237
191
190
192
193
189
188
239
238
240
242
241
186
187
195
194
197
196
202
201
198
199
200
208
209
210
207
205
206
204
203
996
182
183
184
181
180
179
178
177
176
175
174
173
170
171
172
161
160
159
185
158
157
162
163
167
168
169
166
165
164
156
155
154
153
995
150
151
152
149
148
147
146
145
144
143
142
141
140
139
138
137
132
131
130
129
128
127
125
126
256
255
254
253
259
258
257
121
120
122
123
124
104
105
106
118
119
117
116
115
114
112
110
109
108
107
994
103
102
101
100
133
134
135
136
95
96
97
98
99
91
90
92
94
93
77
78
79
82
88
89
87
86
85
84
83
81
80
74
75
76
-1
EOF
